% clingo representation of a Flatland environment
% height: 13, width: 22, agents: 4

global(30).

train(0). start(0,(2,1),0,e). end(0,(3,6),10). speed(0,1).

train(1). start(1,(2,10),12,e). end(1,(3,15),22). speed(1,1).

train(2). start(2,(8,1),0,e). end(2,(9,8),12). speed(2,1).

train(3). start(3,(8,12),11,e). end(3,(9,19),23). speed(3,1).

cell((0,0), 0).
cell((0,1), 0).
cell((0,2), 0).
cell((0,3), 0).
cell((0,4), 0).
cell((0,5), 0).
cell((0,6), 0).
cell((0,7), 0).
cell((0,8), 0).
cell((0,9), 0).
cell((0,10), 0).
cell((0,11), 0).
cell((0,12), 0).
cell((0,13), 0).
cell((0,14), 0).
cell((0,15), 0).
cell((0,16), 0).
cell((0,17), 0).
cell((0,18), 0).
cell((0,19), 0).
cell((0,20), 0).
cell((0,21), 0).

cell((1,0), 0).
cell((1,1), 0).
cell((1,2), 0).
cell((1,3), 0).
cell((1,4), 0).
cell((1,5), 0).
cell((1,6), 0).
cell((1,7), 0).
cell((1,8), 0).
cell((1,9), 0).
cell((1,10), 0).
cell((1,11), 0).
cell((1,12), 0).
cell((1,13), 0).
cell((1,14), 0).
cell((1,15), 0).
cell((1,16), 0).
cell((1,17), 0).
cell((1,18), 0).
cell((1,19), 0).
cell((1,20), 0).
cell((1,21), 0).

cell((2,0), 4).
cell((2,1), 1025).
cell((2,2), 1025).
cell((2,3), 4608).
cell((2,4), 0).
cell((2,5), 0).
cell((2,6), 0).
cell((2,7), 0).
cell((2,8), 0).
cell((2,9), 4).
cell((2,10), 1025).
cell((2,11), 1025).
cell((2,12), 4608).
cell((2,13), 0).
cell((2,14), 0).
cell((2,15), 0).
cell((2,16), 0).
cell((2,17), 0).
cell((2,18), 0).
cell((2,19), 0).
cell((2,20), 0).
cell((2,21), 0).

cell((3,0), 0).
cell((3,1), 0).
cell((3,2), 0).
cell((3,3), 32800).
cell((3,4), 0).
cell((3,5), 16386).
cell((3,6), 1025).
cell((3,7), 256).
cell((3,8), 0).
cell((3,9), 0).
cell((3,10), 0).
cell((3,11), 0).
cell((3,12), 32800).
cell((3,13), 0).
cell((3,14), 16386).
cell((3,15), 1025).
cell((3,16), 256).
cell((3,17), 0).
cell((3,18), 0).
cell((3,19), 0).
cell((3,20), 0).
cell((3,21), 0).

cell((4,0), 0).
cell((4,1), 0).
cell((4,2), 0).
cell((4,3), 72).
cell((4,4), 1025).
cell((4,5), 2064).
cell((4,6), 0).
cell((4,7), 0).
cell((4,8), 0).
cell((4,9), 0).
cell((4,10), 0).
cell((4,11), 0).
cell((4,12), 72).
cell((4,13), 1025).
cell((4,14), 2064).
cell((4,15), 0).
cell((4,16), 0).
cell((4,17), 0).
cell((4,18), 0).
cell((4,19), 0).
cell((4,20), 0).
cell((4,21), 0).

cell((5,0), 0).
cell((5,1), 0).
cell((5,2), 0).
cell((5,3), 0).
cell((5,4), 0).
cell((5,5), 0).
cell((5,6), 0).
cell((5,7), 0).
cell((5,8), 0).
cell((5,9), 0).
cell((5,10), 0).
cell((5,11), 0).
cell((5,12), 0).
cell((5,13), 0).
cell((5,14), 0).
cell((5,15), 0).
cell((5,16), 0).
cell((5,17), 0).
cell((5,18), 0).
cell((5,19), 0).
cell((5,20), 0).
cell((5,21), 0).

cell((6,0), 0).
cell((6,1), 0).
cell((6,2), 0).
cell((6,3), 0).
cell((6,4), 0).
cell((6,5), 0).
cell((6,6), 0).
cell((6,7), 0).
cell((6,8), 0).
cell((6,9), 0).
cell((6,10), 0).
cell((6,11), 0).
cell((6,12), 0).
cell((6,13), 0).
cell((6,14), 0).
cell((6,15), 0).
cell((6,16), 0).
cell((6,17), 0).
cell((6,18), 0).
cell((6,19), 0).
cell((6,20), 0).
cell((6,21), 0).

cell((7,0), 0).
cell((7,1), 0).
cell((7,2), 0).
cell((7,3), 0).
cell((7,4), 0).
cell((7,5), 0).
cell((7,6), 0).
cell((7,7), 0).
cell((7,8), 0).
cell((7,9), 0).
cell((7,10), 0).
cell((7,11), 0).
cell((7,12), 0).
cell((7,13), 0).
cell((7,14), 0).
cell((7,15), 0).
cell((7,16), 0).
cell((7,17), 0).
cell((7,18), 0).
cell((7,19), 0).
cell((7,20), 0).
cell((7,21), 0).

cell((8,0), 4).
cell((8,1), 1025).
cell((8,2), 1025).
cell((8,3), 1025).
cell((8,4), 4608).
cell((8,5), 0).
cell((8,6), 0).
cell((8,7), 0).
cell((8,8), 0).
cell((8,9), 0).
cell((8,10), 0).
cell((8,11), 4).
cell((8,12), 1025).
cell((8,13), 1025).
cell((8,14), 1025).
cell((8,15), 4608).
cell((8,16), 0).
cell((8,17), 0).
cell((8,18), 0).
cell((8,19), 0).
cell((8,20), 0).
cell((8,21), 0).

cell((9,0), 0).
cell((9,1), 0).
cell((9,2), 0).
cell((9,3), 0).
cell((9,4), 32800).
cell((9,5), 0).
cell((9,6), 16386).
cell((9,7), 1025).
cell((9,8), 1025).
cell((9,9), 256).
cell((9,10), 0).
cell((9,11), 0).
cell((9,12), 0).
cell((9,13), 0).
cell((9,14), 0).
cell((9,15), 32800).
cell((9,16), 0).
cell((9,17), 16386).
cell((9,18), 1025).
cell((9,19), 1025).
cell((9,20), 256).
cell((9,21), 0).

cell((10,0), 0).
cell((10,1), 0).
cell((10,2), 0).
cell((10,3), 0).
cell((10,4), 72).
cell((10,5), 1025).
cell((10,6), 2064).
cell((10,7), 0).
cell((10,8), 0).
cell((10,9), 0).
cell((10,10), 0).
cell((10,11), 0).
cell((10,12), 0).
cell((10,13), 0).
cell((10,14), 0).
cell((10,15), 72).
cell((10,16), 1025).
cell((10,17), 2064).
cell((10,18), 0).
cell((10,19), 0).
cell((10,20), 0).
cell((10,21), 0).

cell((11,0), 0).
cell((11,1), 0).
cell((11,2), 0).
cell((11,3), 0).
cell((11,4), 0).
cell((11,5), 0).
cell((11,6), 0).
cell((11,7), 0).
cell((11,8), 0).
cell((11,9), 0).
cell((11,10), 0).
cell((11,11), 0).
cell((11,12), 0).
cell((11,13), 0).
cell((11,14), 0).
cell((11,15), 0).
cell((11,16), 0).
cell((11,17), 0).
cell((11,18), 0).
cell((11,19), 0).
cell((11,20), 0).
cell((11,21), 0).

cell((12,0), 0).
cell((12,1), 0).
cell((12,2), 0).
cell((12,3), 0).
cell((12,4), 0).
cell((12,5), 0).
cell((12,6), 0).
cell((12,7), 0).
cell((12,8), 0).
cell((12,9), 0).
cell((12,10), 0).
cell((12,11), 0).
cell((12,12), 0).
cell((12,13), 0).
cell((12,14), 0).
cell((12,15), 0).
cell((12,16), 0).
cell((12,17), 0).
cell((12,18), 0).
cell((12,19), 0).
cell((12,20), 0).
cell((12,21), 0).

